
Gurobi 9.5.1 (linux64) logging started Thu 09 Jun 2022 08:15:04 PM MST

Set parameter LogFile to value "/home/local/ASUAD/kmajd1/NNRepLayer_v2/demos/walking_example/dynamic_constraint/repair_net/logs/opt_log_6_9_2022_20_14_28.log"
Gurobi Optimizer version 9.5.1 build v9.5.1rc2 (linux64)
Thread count: 48 physical cores, 96 logical processors, using up to 32 threads
Optimize a model with 37077 rows, 22792 columns and 105173 nonzeros
Model fingerprint: 0x7ab1dbff
Model has 136 quadratic objective terms
Variable types: 9832 continuous, 12960 integer (12960 binary)
Coefficient statistics:
  Matrix range     [7e-04, 5e+01]
  Objective range  [2e-02, 3e+00]
  QObjective range [1e-01, 2e+00]
  Bounds range     [5e-01, 5e+01]
  RHS range        [2e-04, 5e+01]
Presolve removed 22254 rows and 8832 columns
Presolve time: 0.15s
Presolved: 14823 rows, 13960 columns, 69594 nonzeros
Presolved model has 136 quadratic objective terms
Variable types: 9640 continuous, 4320 integer (4320 binary)
Root relaxation presolve removed 4320 rows and 4320 columns
Root relaxation presolved: 10503 rows, 9640 columns, 60954 nonzeros
Root relaxation presolved model has 136 quadratic objective terms


Root relaxation: objective 4.754099e+01, 11596 iterations, 1.02 seconds (2.59 work units)

    Nodes    |    Current Node    |     Objective Bounds      |     Work
 Expl Unexpl |  Obj  Depth IntInf | Incumbent    BestBd   Gap | It/Node Time

     0     0   47.54099    0  758          -   47.54099      -     -    3s
     0     0   47.54270    0  741          -   47.54270      -     -   13s
     0     0   47.54408    0  726          -   47.54408      -     -   13s
     0     0   47.54617    0  754          -   47.54617      -     -   13s
     0     0   47.54617    0  753          -   47.54617      -     -   13s
     0     0   47.54617    0  728          -   47.54617      -     -   14s
     0     0   47.54617    0  713          -   47.54617      -     -   14s
     0     0   47.54617    0  720          -   47.54617      -     -   14s
     0     0   47.54617    0  716          -   47.54617      -     -   15s
     0     0   47.54617    0  734          -   47.54617      -     -   15s
     0     0   47.54617    0  720          -   47.54617      -     -   15s
     0     0   47.54617    0  738          -   47.54617      -     -   16s
     0     0   47.54617    0  740          -   47.54617      -     -   16s
     0     0   47.54617    0  752          -   47.54617      -     -   17s
     0     0   47.54617    0  768          -   47.54617      -     -   17s
     0     0   47.54617    0  762          -   47.54617      -     -   17s
     0     0   47.54617    0  770          -   47.54617      -     -   17s
     0     0   47.54617    0  769          -   47.54617      -     -   18s
     0     0   47.54617    0  779          -   47.54617      -     -   18s
     0     0   47.54617    0  798          -   47.54617      -     -   19s
H    0     0                      75.9910493   47.54617  37.4%     -   46s
H    0     0                      75.0811321   47.54617  36.7%     -   49s
     0     2   47.54617    0  798   75.08113   47.54617  36.7%     -   49s
     1     4   47.57032    1  958   75.08113   47.54617  36.7%  1677   50s
    15    32   47.57032    4 1018   75.08113   47.54748  36.7%  1325   55s
H   31    64                      74.7652442   47.54748  36.4%  1448   64s
H   33    64                      74.4283347   47.54748  36.1%  1473   64s
H   34    64                      71.8586490   47.54748  33.8%  1485   64s
H   47    64                      71.3967313   47.54748  33.4%  1632   64s

Cutting planes:
  Gomory: 1
  Cover: 21
  Implied bound: 196
  Clique: 1
  MIR: 7054
  Flow cover: 2892
  Relax-and-lift: 80

Explored 63 nodes (138319 simplex iterations) in 64.52 seconds (92.16 work units)
Thread count was 32 (of 96 available processors)

Solution count 6: 71.3967 71.8586 74.4283 ... 75.991

Solve interrupted
Best objective 7.139673132459e+01, best bound 4.754788887693e+01, gap 33.4033%
